(set-logic QF_S)
(declare-fun var0 () String)
(assert (str.in.re var0 (re.++ (re.* (re.+ (str.to.re "00"))) (re.++ (re.* (re.+ (str.to.re "11"))) (re.++ (re.* (re.+ (str.to.re "2"))) (re.++ (re.union (re.union (str.to.re "33") (str.to.re "44")) (re.union (str.to.re "5") (str.to.re "66"))) (re.++ (re.* (re.* (str.to.re "7"))) (re.++ (re.+ (re.* (str.to.re "8"))) (re.++ (re.+ (re.* (str.to.re "99"))) (re.++ (re.+ (re.* (str.to.re "aaa"))) (re.++ (re.union (re.+ (str.to.re "b")) (re.+ (str.to.re "cc"))) (re.* (re.+ (str.to.re "d"))))))))))))))
(assert (<= 1 (str.len var0)))
(check-sat)